(set-logic ALL)
(declare-const BAV1 Bool)
(declare-fun x () Int)
(declare-fun y () Int)
(declare-fun a () (Set Int))
(declare-fun b () (Set Int))
(assert (member x (union a b)))
(assert (not (member y a)))
(assert (= x y))
(assert (= BAV1 (= x y)))
(check-sat)
(get-model)